presolving:
(round 1, fast)       17414 del vars, 17484 del conss, 0 add conss, 17200 chg bounds, 84 chg sides, 0 chg coeffs, 0 upgd conss, 0 impls, 8514 clqs
   (0.2s) running MILP presolver
   (0.2s) MILP presolver found nothing
(round 2, exhaustive) 17414 del vars, 17484 del conss, 0 add conss, 17200 chg bounds, 84 chg sides, 0 chg coeffs, 8514 upgd conss, 0 impls, 8514 clqs
   (1.4s) probing: 1000/8500 (11.8%) - 0 fixings, 0 aggregations, 51488 implications, 0 bound changes
   (1.4s) probing: 1001/8500 (11.8%) - 0 fixings, 0 aggregations, 51488 implications, 0 bound changes
   (1.4s) probing aborted: 1000/1000 successive useless probings
   (1.5s) symmetry computation started: requiring (bin +, int -, cont +), (fixed: bin -, int +, cont -)
   (1.5s) no symmetry present
presolving (3 rounds: 3 fast, 2 medium, 2 exhaustive):
 17414 deleted vars, 17484 deleted constraints, 0 added constraints, 17200 tightened bounds, 0 added holes, 84 changed sides, 0 changed coefficients
 0 implications, 60002 cliques
presolved problem has 8500 variables (8500 bin, 0 int, 0 impl, 0 cont) and 8515 constraints
   8514 constraints of type <setppc>
      1 constraints of type <linear>
Presolving Time: 1.41

 time | node  | left  |LP iter|LP it/n|mem/heur|mdpt |vars |cons |rows |cuts |sepa|confs|strbr|  dualbound   | primalbound  |  gap   | compl. 
p 1.5s|     1 |     0 |     0 |     - |  clique|   0 |8500 |8515 |8515 |   0 |  0 |   0 |   0 | 3.033002e+08 | 3.034819e+08 |   0.06%| unknown
p 1.6s|     1 |     0 |     0 |     - | vbounds|   0 |8500 |8515 |8515 |   0 |  0 |   0 |   0 | 3.033002e+08 | 3.033416e+08 |   0.01%| unknown
  2.2s|     1 |     0 |  3334 |     - |   152M |   0 |8500 |8538 |8515 |   0 |  0 |  23 |   0 | 3.033199e+08 | 3.033416e+08 |   0.01%| unknown
  2.8s|     1 |     0 |  3423 |     - |   153M |   0 |8500 |8538 |8516 |   1 |  1 |  23 |   0 | 3.033199e+08 | 3.033416e+08 |   0.01%| unknown
  3.3s|     1 |     0 |  3511 |     - |   154M |   0 |8500 |8538 |8517 |   2 |  2 |  23 |   0 | 3.033199e+08 | 3.033416e+08 |   0.01%| unknown
  3.8s|     1 |     0 |  3648 |     - |   155M |   0 |8500 |8538 |8518 |   3 |  3 |  23 |   0 | 3.033199e+08 | 3.033416e+08 |   0.01%| unknown
  4.3s|     1 |     0 |  3709 |     - |   156M |   0 |8500 |8538 |8519 |   4 |  4 |  23 |   0 | 3.033199e+08 | 3.033416e+08 |   0.01%| unknown
  4.8s|     1 |     0 |  3749 |     - |   157M |   0 |8500 |8538 |8520 |   5 |  5 |  23 |   0 | 3.033199e+08 | 3.033416e+08 |   0.01%| unknown
  5.4s|     1 |     0 |  3934 |     - |   158M |   0 |8500 |8538 |8521 |   6 |  6 |  23 |   0 | 3.033199e+08 | 3.033416e+08 |   0.01%| unknown
d 7.2s|     1 |     0 |  8251 |     - |farkasdi|   0 |8500 |8538 |8521 |   0 |  8 |  23 |   0 | 3.033199e+08 | 3.033217e+08 |   0.00%| unknown
L 9.0s|     1 |     0 | 16168 |     - |    rens|   0 |8500 |8558 |8521 |   6 |  8 |  43 |   0 | 3.033199e+08 | 3.033213e+08 |   0.00%| unknown
  9.3s|     1 |     0 | 16168 |     - |   160M |   0 |8500 |8558 |8521 |   6 |  8 |  43 |   0 | 3.033199e+08 | 3.033213e+08 |   0.00%| unknown
  9.3s|     1 |     0 | 16168 |     - |   161M |   0 |8500 |8558 |4820 |   6 |  8 |  43 |   0 | 3.033199e+08 | 3.033213e+08 |   0.00%| unknown
  9.7s|     1 |     0 | 16179 |     - |   161M |   0 |8500 |4841 |4820 |   7 |  9 |  43 |   0 | 3.033199e+08 | 3.033213e+08 |   0.00%| unknown
(run 1, node 1) restarting after 4535 global fixings of integer variables

(restart) converted 7 cuts from the global cut pool into linear constraints

presolving:
(round 1, fast)       4535 del vars, 0 del conss, 0 add conss, 0 chg bounds, 0 chg sides, 0 chg coeffs, 0 upgd conss, 0 impls, 17096 clqs
   (9.8s) running MILP presolver
   (9.8s) MILP presolver found nothing
(round 2, exhaustive) 4535 del vars, 0 del conss, 0 add conss, 0 chg bounds, 0 chg sides, 0 chg coeffs, 7 upgd conss, 0 impls, 17096 clqs
presolving (3 rounds: 3 fast, 2 medium, 2 exhaustive):
 4535 deleted vars, 1 deleted constraints, 0 added constraints, 0 tightened bounds, 0 added holes, 0 changed sides, 1 changed coefficients
 0 implications, 17096 cliques
presolved problem has 3965 variables (3965 bin, 0 int, 0 impl, 0 cont) and 4033 constraints
      7 constraints of type <knapsack>
   4006 constraints of type <setppc>
      1 constraints of type <linear>
     19 constraints of type <logicor>
Presolving Time: 1.47
transformed 4/5 original solutions to the transformed problem space

 time | node  | left  |LP iter|LP it/n|mem/heur|mdpt |vars |cons |rows |cuts |sepa|confs|strbr|  dualbound   | primalbound  |  gap   | compl. 
 10.0s|     1 |     0 | 18382 |     - |   165M |   0 |3965 |4033 |4013 |   0 |  0 |  43 |   0 | 3.033199e+08 | 3.033213e+08 |   0.00%| unknown
 11.2s|     1 |     0 | 18496 |     - |   170M |   0 |3965 |4033 |4014 |   1 |  1 |  43 |   0 | 3.033200e+08 | 3.033213e+08 |   0.00%| unknown
 11.2s|     1 |     0 | 18496 |     - |   170M |   0 |3965 |4033 |4011 |   1 |  1 |  43 |   0 | 3.033200e+08 | 3.033213e+08 |   0.00%| unknown
 11.4s|     1 |     0 | 18560 |     - |   171M |   0 |3965 |4030 |4012 |   2 |  2 |  43 |   0 | 3.033200e+08 | 3.033213e+08 |   0.00%| unknown
 12.6s|     1 |     0 | 18736 |     - |   177M |   0 |3965 |4030 |4014 |   4 |  3 |  43 |   0 | 3.033200e+08 | 3.033213e+08 |   0.00%| unknown
 12.6s|     1 |     0 | 18736 |     - |   177M |   0 |3965 |4030 |4012 |   4 |  3 |  43 |   0 | 3.033200e+08 | 3.033213e+08 |   0.00%| unknown
 12.9s|     1 |     0 | 18880 |     - |   177M |   0 |3965 |4028 |4014 |   6 |  4 |  43 |   0 | 3.033200e+08 | 3.033213e+08 |   0.00%| unknown
 12.9s|     1 |     0 | 18880 |     - |   177M |   0 |3965 |4028 |4013 |   6 |  4 |  43 |   0 | 3.033200e+08 | 3.033213e+08 |   0.00%| unknown
 13.1s|     1 |     0 | 18941 |     - |   177M |   0 |3965 |4027 |4014 |   7 |  5 |  43 |   0 | 3.033200e+08 | 3.033213e+08 |   0.00%| unknown
 13.4s|     1 |     0 | 19008 |     - |   177M |   0 |3965 |4027 |4015 |   8 |  6 |  43 |   0 | 3.033200e+08 | 3.033213e+08 |   0.00%| unknown
 13.4s|     1 |     0 | 19008 |     - |   177M |   0 |3965 |4027 |4012 |   8 |  6 |  43 |   0 | 3.033200e+08 | 3.033213e+08 |   0.00%| unknown
 13.6s|     1 |     0 | 19044 |     - |   177M |   0 |3965 |4024 |4013 |   9 |  7 |  43 |   0 | 3.033200e+08 | 3.033213e+08 |   0.00%| unknown
 13.6s|     1 |     0 | 19044 |     - |   177M |   0 |3965 |4024 |4012 |   9 |  7 |  43 |   0 | 3.033200e+08 | 3.033213e+08 |   0.00%| unknown
 13.8s|     1 |     0 | 19071 |     - |   177M |   0 |3965 |4023 |4013 |  10 |  8 |  43 |   0 | 3.033200e+08 | 3.033213e+08 |   0.00%| unknown
 14.1s|     1 |     0 | 19160 |     - |   177M |   0 |3965 |4023 |4014 |  11 |  9 |  43 |   0 | 3.033200e+08 | 3.033213e+08 |   0.00%| unknown
 time | node  | left  |LP iter|LP it/n|mem/heur|mdpt |vars |cons |rows |cuts |sepa|confs|strbr|  dualbound   | primalbound  |  gap   | compl. 
 14.1s|     1 |     0 | 19160 |     - |   177M |   0 |3965 |4023 |4013 |  11 |  9 |  43 |   0 | 3.033200e+08 | 3.033213e+08 |   0.00%| unknown
 15.1s|     1 |     0 | 19303 |     - |   179M |   0 |3965 |4022 |4014 |  12 | 10 |  43 |   0 | 3.033200e+08 | 3.033213e+08 |   0.00%| unknown
 15.3s|     1 |     0 | 19434 |     - |   179M |   0 |3965 |4022 |4015 |  13 | 11 |  43 |   0 | 3.033200e+08 | 3.033213e+08 |   0.00%| unknown
 15.5s|     1 |     0 | 19499 |     - |   180M |   0 |3965 |4022 |4016 |  14 | 12 |  43 |   0 | 3.033200e+08 | 3.033213e+08 |   0.00%| unknown
 15.5s|     1 |     0 | 19499 |     - |   180M |   0 |3965 |4022 |4012 |  14 | 12 |  43 |   0 | 3.033200e+08 | 3.033213e+08 |   0.00%| unknown
 15.7s|     1 |     0 | 19549 |     - |   180M |   0 |3965 |4018 |4013 |  15 | 13 |  43 |   0 | 3.033200e+08 | 3.033213e+08 |   0.00%| unknown
 15.8s|     1 |     0 | 19613 |     - |   180M |   0 |3965 |4018 |4014 |  16 | 14 |  43 |   0 | 3.033200e+08 | 3.033213e+08 |   0.00%| unknown
 15.9s|     1 |     0 | 19613 |     - |   180M |   0 |3965 |4018 |4013 |  16 | 14 |  43 |   0 | 3.033200e+08 | 3.033213e+08 |   0.00%| unknown
 16.0s|     1 |     0 | 19652 |     - |   180M |   0 |3965 |4017 |4014 |  18 | 15 |  43 |   0 | 3.033200e+08 | 3.033213e+08 |   0.00%| unknown
 16.2s|     1 |     0 | 19713 |     - |   180M |   0 |3965 |4017 |4015 |  19 | 16 |  43 |   0 | 3.033200e+08 | 3.033213e+08 |   0.00%| unknown
 16.4s|     1 |     0 | 19769 |     - |   180M |   0 |3965 |4017 |4016 |  20 | 17 |  43 |   0 | 3.033201e+08 | 3.033213e+08 |   0.00%| unknown
 16.6s|     1 |     0 | 19793 |     - |   180M |   0 |3965 |4017 |4017 |  21 | 18 |  43 |   0 | 3.033201e+08 | 3.033213e+08 |   0.00%| unknown
 16.8s|     1 |     0 | 19848 |     - |   181M |   0 |3965 |4017 |4018 |  22 | 19 |  43 |   0 | 3.033201e+08 | 3.033213e+08 |   0.00%| unknown
 17.0s|     1 |     0 | 19909 |     - |   181M |   0 |3965 |4017 |4019 |  23 | 20 |  43 |   0 | 3.033201e+08 | 3.033213e+08 |   0.00%| unknown
d17.5s|     1 |     0 | 21981 |     - |farkasdi|   0 |3965 |3990 |4019 |   0 | 22 |  50 |   0 | 3.033201e+08 | 3.033208e+08 |   0.00%| unknown
 time | node  | left  |LP iter|LP it/n|mem/heur|mdpt |vars |cons |rows |cuts |sepa|confs|strbr|  dualbound   | primalbound  |  gap   | compl. 
L18.1s|     1 |     0 | 23591 |     - |    rens|   0 |3965 |3993 |4019 |  23 | 22 |  53 |   0 | 3.033201e+08 | 3.033207e+08 |   0.00%| unknown
 18.1s|     1 |     0 | 23591 |     - |   182M |   0 |3965 |3993 |4019 |  23 | 22 |  53 |   0 | 3.033201e+08 | 3.033207e+08 |   0.00%| unknown
 18.1s|     1 |     0 | 23591 |     - |   182M |   0 |3965 |3993 |3000 |  23 | 22 |  53 |   0 | 3.033201e+08 | 3.033207e+08 |   0.00%| unknown
 18.3s|     1 |     0 | 23591 |     - |   182M |   0 |3965 |2974 |2999 |  23 | 23 |  53 |   0 | 3.033201e+08 | 3.033207e+08 |   0.00%| unknown
(run 2, node 1) restarting after 1222 global fixings of integer variables

(restart) converted 23 cuts from the global cut pool into linear constraints

presolving:
(round 1, fast)       1222 del vars, 0 del conss, 0 add conss, 0 chg bounds, 0 chg sides, 0 chg coeffs, 0 upgd conss, 0 impls, 8950 clqs
   (18.3s) running MILP presolver
   (18.3s) MILP presolver found nothing
(round 2, exhaustive) 1222 del vars, 0 del conss, 0 add conss, 0 chg bounds, 0 chg sides, 0 chg coeffs, 19 upgd conss, 0 impls, 8950 clqs
(round 3, exhaustive) 1222 del vars, 7 del conss, 0 add conss, 0 chg bounds, 0 chg sides, 0 chg coeffs, 19 upgd conss, 0 impls, 8950 clqs
presolving (4 rounds: 4 fast, 3 medium, 3 exhaustive):
 1222 deleted vars, 7 deleted constraints, 0 added constraints, 0 tightened bounds, 0 added holes, 0 changed sides, 0 changed coefficients
 0 implications, 8950 cliques
presolved problem has 2743 variables (2743 bin, 0 int, 0 impl, 0 cont) and 2825 constraints
     26 constraints of type <knapsack>
   2791 constraints of type <setppc>
      5 constraints of type <linear>
      3 constraints of type <logicor>
Presolving Time: 1.54
transformed 4/11 original solutions to the transformed problem space

 time | node  | left  |LP iter|LP it/n|mem/heur|mdpt |vars |cons |rows |cuts |sepa|confs|strbr|  dualbound   | primalbound  |  gap   | compl. 
 19.1s|     1 |     0 | 29171 |     - |   181M |   0 |2743 |2825 |2821 |   0 |  0 |  53 |   0 | 3.033201e+08 | 3.033207e+08 |   0.00%| unknown
 19.1s|     1 |     0 | 29171 |     - |   181M |   0 |2743 |2825 |2820 |   0 |  0 |  53 |   0 | 3.033201e+08 | 3.033207e+08 |   0.00%| unknown
 19.3s|     1 |     0 | 29211 |     - |   183M |   0 |2743 |2824 |2821 |   1 |  1 |  53 |   0 | 3.033201e+08 | 3.033207e+08 |   0.00%| unknown
 19.4s|     1 |     0 | 29211 |     - |   183M |   0 |2743 |2824 |2820 |   1 |  1 |  53 |   0 | 3.033201e+08 | 3.033207e+08 |   0.00%| unknown
 19.6s|     1 |     0 | 29233 |     - |   183M |   0 |2743 |2823 |2821 |   2 |  2 |  53 |   0 | 3.033201e+08 | 3.033207e+08 |   0.00%| unknown
 19.6s|     1 |     0 | 29233 |     - |   183M |   0 |2743 |2823 |2820 |   2 |  2 |  53 |   0 | 3.033201e+08 | 3.033207e+08 |   0.00%| unknown
 19.8s|     1 |     0 | 29274 |     - |   183M |   0 |2743 |2822 |2821 |   3 |  3 |  53 |   0 | 3.033201e+08 | 3.033207e+08 |   0.00%| unknown
 19.8s|     1 |     0 | 29274 |     - |   183M |   0 |2743 |2822 |2816 |   3 |  3 |  53 |   0 | 3.033201e+08 | 3.033207e+08 |   0.00%| unknown
 23.8s|     1 |     2 | 31868 |     - |   183M |   0 |2743 |2819 |2816 |   3 |  5 |  55 |  22 | 3.033202e+08 | 3.033207e+08 |   0.00%| unknown

SCIP Status        : problem is solved [optimal solution found]
Solving Time (sec) : 24.62
Solving Nodes      : 3 (total of 5 nodes in 3 runs)
Primal Bound       : +3.03320685221476e+08 (16 solutions)
Dual Bound         : +3.03320685221476e+08
Gap                : 0.00 %
Solve Status: optimal
Solve Time: 24.62 seconds
Objective Value: 303320685.22
